(set-info :smt-lib-version 2.6)
(set-logic QF_UFLRA)
(set-info :source |
MathSat group

|)
(set-info :category "random")
(set-info :status sat)
(declare-fun x0 () Real)
(declare-fun x1 () Real)
(declare-fun x2 () Real)
(declare-fun x3 () Real)
(declare-fun x4 () Real)
(declare-fun x5 () Real)
(declare-fun x6 () Real)
(declare-fun x7 () Real)
(declare-fun x8 () Real)
(declare-fun x9 () Real)
(declare-fun x10 () Real)
(declare-fun x11 () Real)
(declare-fun x12 () Real)
(declare-fun x13 () Real)
(declare-fun x14 () Real)
(declare-fun x15 () Real)
(declare-fun x16 () Real)
(declare-fun x17 () Real)
(declare-fun x18 () Real)
(declare-fun x19 () Real)
(declare-fun x20 () Real)
(declare-fun x21 () Real)
(declare-fun x22 () Real)
(declare-fun x23 () Real)
(declare-fun x24 () Real)
(declare-fun x25 () Real)
(declare-fun x26 () Real)
(declare-fun x27 () Real)
(declare-fun x28 () Real)
(declare-fun x29 () Real)
(declare-fun x30 () Real)
(declare-fun x31 () Real)
(declare-fun x32 () Real)
(declare-fun x33 () Real)
(declare-fun x34 () Real)
(declare-fun x35 () Real)
(declare-fun x36 () Real)
(declare-fun x37 () Real)
(declare-fun x38 () Real)
(declare-fun x39 () Real)
(declare-fun x40 () Real)
(declare-fun x41 () Real)
(declare-fun x42 () Real)
(declare-fun x43 () Real)
(declare-fun x44 () Real)
(declare-fun x45 () Real)
(declare-fun x46 () Real)
(declare-fun x47 () Real)
(declare-fun x48 () Real)
(declare-fun x49 () Real)
(declare-fun f0_1 (Real) Real)
(declare-fun f0_2 (Real Real) Real)
(declare-fun f0_3 (Real Real Real) Real)
(declare-fun f0_4 (Real Real Real Real) Real)
(declare-fun P0 () Bool)
(declare-fun P1 () Bool)
(declare-fun P2 () Bool)
(declare-fun P3 () Bool)
(declare-fun P4 () Bool)
(declare-fun P5 () Bool)
(declare-fun P6 () Bool)
(declare-fun P7 () Bool)
(declare-fun P8 () Bool)
(declare-fun P9 () Bool)
(declare-fun P10 () Bool)
(declare-fun P11 () Bool)
(declare-fun P12 () Bool)
(declare-fun P13 () Bool)
(declare-fun P14 () Bool)
(declare-fun P15 () Bool)
(declare-fun P16 () Bool)
(declare-fun P17 () Bool)
(declare-fun P18 () Bool)
(declare-fun P19 () Bool)
(declare-fun P20 () Bool)
(declare-fun P21 () Bool)
(declare-fun P22 () Bool)
(declare-fun P23 () Bool)
(declare-fun P24 () Bool)
(declare-fun P25 () Bool)
(declare-fun P26 () Bool)
(declare-fun P27 () Bool)
(declare-fun P28 () Bool)
(declare-fun P29 () Bool)
(declare-fun P30 () Bool)
(declare-fun P31 () Bool)
(declare-fun P32 () Bool)
(declare-fun P33 () Bool)
(declare-fun P34 () Bool)
(declare-fun P35 () Bool)
(declare-fun P36 () Bool)
(declare-fun P37 () Bool)
(declare-fun P38 () Bool)
(declare-fun P39 () Bool)
(declare-fun P40 () Bool)
(declare-fun P41 () Bool)
(declare-fun P42 () Bool)
(declare-fun P43 () Bool)
(declare-fun P44 () Bool)
(declare-fun P45 () Bool)
(declare-fun P46 () Bool)
(declare-fun P47 () Bool)
(declare-fun P48 () Bool)
(declare-fun P49 () Bool)
(assert (let ((?v_79 (* 11 x42)) (?v_71 (< (- (+ (* 18 x44) (* 19 x9)) (* 23 x38)) 10)) (?v_38 (* 11 x4)) (?v_73 (* 12 x21)) (?v_69 (* 3 x8)) (?v_214 (< (+ (- (* 21 x23) (* 17 x30)) (* 24 x13)) 15)) (?v_195 (* 22 x34)) (?v_102 (* 19 x19)) (?v_20 (< (- (- (* 6 x43) (* 3 x48)) (* 18 x24)) 20))) (let ((?v_48 (distinct (- (- (* 7 x2) (* 10 x1)) ?v_102) 14)) (?v_76 (= x34 x41)) (?v_42 (f0_1 x41))) (let ((?v_45 (= (f0_2 x47 x24) ?v_42)) (?v_13 (distinct x26 x15)) (?v_131 (= (f0_2 x47 x3) (f0_2 x26 x34))) (?v_148 (distinct (f0_2 x21 x15) (f0_2 x31 x11))) (?v_94 (distinct x17 x6)) (?v_34 (= (f0_2 x33 x12) x49)) (?v_152 (= (f0_2 x26 x26) x3)) (?v_149 (f0_1 x23))) (let ((?v_203 (distinct x40 ?v_149)) (?v_209 (= (f0_1 x3) (f0_1 x15))) (?v_106 (= (f0_1 x34) (f0_2 x44 x38))) (?v_123 (= x44 (f0_2 x25 x0))) (?v_243 (distinct (f0_2 x3 x39) (f0_2 x42 x15))) (?v_170 (distinct (f0_1 x29) x32)) (?v_31 (= (f0_2 x12 x3) (f0_2 x8 x38))) (?v_202 (= (f0_1 x24) (f0_1 x45))) (?v_7 (= (f0_2 x46 x47) (f0_1 x21))) (?v_133 (distinct (f0_1 x44) (f0_2 x21 x36))) (?v_160 (distinct x26 x37)) (?v_19 (f0_1 x4))) (let ((?v_113 (distinct (f0_1 x0) ?v_19)) (?v_156 (= (f0_2 x12 x49) (f0_2 x44 x30))) (?v_27 (= x35 ?v_19)) (?v_66 (distinct (f0_2 x30 x19) x27)) (?v_24 (f0_1 x22))) (let ((?v_43 (distinct ?v_24 ?v_149)) (?v_3 (f0_1 x32))) (let ((?v_118 (= x1 ?v_3)) (?v_62 (= x6 (f0_2 x47 x32))) (?v_74 (= x2 ?v_42)) (?v_137 (distinct (f0_2 x0 x33) (f0_1 x2))) (?v_138 (distinct (f0_2 x32 x43) (f0_2 x6 x29))) (?v_18 (= x18 (f0_2 x17 x18))) (?v_9 (distinct ?v_3 (f0_2 x3 x42))) (?v_90 (= x24 x24)) (?v_82 (= x26 x5)) (?v_84 (= x44 (f0_2 x28 x26))) (?v_169 (f0_1 x8))) (let ((?v_15 (distinct x21 ?v_169)) (?v_56 (= x49 x19)) (?v_184 (= ?v_169 (f0_1 x7))) (?v_57 (f0_1 x31))) (let ((?v_68 (distinct (f0_2 x3 x47) ?v_57)) (?v_182 (distinct x28 (f0_1 x48))) (?v_126 (= x27 x0)) (?v_185 (distinct (f0_1 x40) x20)) (?v_60 (= (f0_2 x24 x35) (f0_2 x44 x28))) (?v_5 (= x44 (f0_2 x46 x6))) (?v_153 (= (f0_2 x3 x30) x19)) (?v_143 (distinct x25 x12)) (?v_40 (= (f0_1 x1) x46)) (?v_229 (distinct (f0_1 x47) (f0_2 x7 x45))) (?v_91 (distinct ?v_57 (f0_2 x37 x1))) (?v_167 (= (f0_2 x9 x45) (f0_2 x20 x2))) (?v_23 (not P27)) (?v_165 (not P1)) (?v_6 (not ?v_133)) (?v_49 (not P34)) (?v_33 (not P4)) (?v_67 (not ?v_18)) (?v_88 (not P24)) (?v_119 (not P42)) (?v_4 (not P23)) (?v_110 (not P14)) (?v_8 (not P40)) (?v_50 (not ?v_7)) (?v_25 (not ?v_137)) (?v_127 (not P43)) (?v_204 (not ?v_74)) (?v_234 (not ?v_71)) (?v_32 (not ?v_66)) (?v_30 (not P17)) (?v_55 (not ?v_214)) (?v_97 (not ?v_113)) (?v_58 (not P0))) (let ((?v_54 (not ?v_68)) (?v_161 (not P46)) (?v_193 (not P30)) (?v_61 (not P16)) (?v_96 (not P22)) (?v_26 (not P39)) (?v_53 (not ?v_90)) (?v_146 (not (= (f0_1 x5) ?v_24))) (?v_78 (not ?v_229)) (?v_111 (not ?v_76)) (?v_63 (not ?v_62)) (?v_87 (not ?v_148)) (?v_162 (not P29)) (?v_225 (not ?v_82)) (?v_65 (not P28)) (?v_190 (not ?v_31)) (?v_98 (not P11)) (?v_59 (not ?v_209)) (?v_100 (not ?v_156)) (?v_86 (not P10)) (?v_64 (not P7)) (?v_135 (not ?v_20)) (?v_155 (not P13)) (?v_117 (not P5)) (?v_226 (not ?v_60)) (?v_85 (not ?v_43)) (?v_81 (not ?v_15)) (?v_253 (not P8)) (?v_192 (not ?v_13)) (?v_51 (not ?v_243)) (?v_172 (not ?v_45)) (?v_145 (not P31)) (?v_171 (not P25)) (?v_109 (not ?v_56)) (?v_236 (not P41)) (?v_228 (not ?v_185)) (?v_144 (not ?v_9)) (?v_211 (not P47)) (?v_75 (not ?v_182)) (?v_181 (not P32)) (?v_233 (not P35)) (?v_164 (not ?v_34)) (?v_166 (not P19)) (?v_221 (not P18)) (?v_154 (not ?v_94)) (?v_101 (not P48)) (?v_180 (not ?v_48)) (?v_120 (not P12)) (?v_208 (not P15)) (?v_194 (not ?v_106)) (?v_136 (not ?v_123)) (?v_157 (not ?v_131)) (?v_227 (not P38)) (?v_178 (not ?v_152)) (?v_159 (not P45)) (?v_201 (not ?v_143)) (?v_218 (not ?v_160))) (let ((?v_257 (or ?v_137 ?v_53)) (?v_245 (not P44)) (?v_187 (not ?v_40)) (?v_186 (not P3)) (?v_207 (not ?v_167)) (?v_200 (not ?v_118)) (?v_212 (not ?v_184)) (?v_196 (not ?v_170)) (?v_197 (not P49)) (?v_246 (not P37)) (?v_216 (not P33)) (?v_231 (not P6)) (?v_199 (not ?v_91)) (?v_237 (not ?v_153)) (?v_241 (not ?v_138)) (?v_256 (not ?v_203)) (?v_235 (not P36)) (?v_244 (not P9)) (?v_230 (not ?v_5)) (?v_232 (not P20)) (?v_239 (not ?v_202)) (?v_249 (not P2)) (?v_258 (not ?v_27)) (?v_252 (not P21)) (?v_0 (<= (- (+ ?v_38 (* 6 x20)) x21) 17))) (let ((?v_36 (not ?v_0)) (?v_44 (= (+ (* 17 x2) (* 13 x15) (* 25 x44)) 2))) (let ((?v_215 (not ?v_44)) (?v_175 (< (- (+ x6 (* 20 x22)) (* 24 x18)) 24)) (?v_108 (< (- (+ (* 27 x29) ?v_69) 0) 13)) (?v_150 (< (- (+ ?v_73 (* 5 x40)) 0) 16)) (?v_142 (< (- (- 0 (* 9 x26)) (* 24 x27)) 9)) (?v_95 (<= (- (* 3 x1) 0) 20))) (let ((?v_128 (not ?v_108)) (?v_213 (not ?v_95)) (?v_183 (< (+ (* 10 x44) (* 3 x42)) 4)) (?v_247 (not ?v_142)) (?v_189 (not ?v_175))) (let ((?v_250 (not ?v_183)) (?v_259 (not ?v_150)) (?v_105 (< (- (- (* (- 14) x34) (* 8 x31)) (* 27 x18)) (- 25)))) (let ((?v_217 (not ?v_105)) (?v_104 (= (+ (- (* 24 x40) (* 22 x26)) (* 4 x47)) (- 3)))) (let ((?v_224 (not ?v_104)) (?v_2 (distinct (- (- (* (- 14) x36) (* 16 x7)) (* 2 x4)) (- 25))) (?v_240 (<= (- (+ (* (- 8) x23) (* 6 x46)) (* 18 x32)) 25))) (let ((?v_17 (not ?v_240)) (?v_254 (< (- (+ (* (- 25) x45) (* 26 x15)) (* 27 x16)) 14))) (let ((?v_16 (not ?v_254)) (?v_1 (= (+ (* (- 25) x20) (* 8 x29) (* 9 x15)) 24))) (let ((?v_10 (not ?v_1)) (?v_112 (< (- (- (* 21 x20) (* 23 x36)) (* 20 x12)) (- 24)))) (let ((?v_151 (not ?v_112)) (?v_11 (<= (- (+ (* 19 x14) (* 6 x47)) (* 5 x33)) (- 24))) (?v_21 (distinct (+ (- (* (- 12) x1) (* 9 x19)) (* 17 x17)) 24)) (?v_12 (<= (+ (- (* 21 x17) ?v_79) (* 23 x31)) (- 17))) (?v_37 (<= (- (- (* (- 10) x45) (* 27 x38)) (* 22 x6)) 9)) (?v_191 (distinct (+ (* 4 x13) (* 7 x36) (* 27 x39)) (- 8)))) (let ((?v_39 (not ?v_191)) (?v_46 (< (- (- (* 22 x43) (* 6 x2)) (* 2 x42)) (- 12)))) (let ((?v_72 (not ?v_46)) (?v_177 (distinct (+ (- (* 11 x22) (* 9 x30)) (* 17 x27)) (- 11)))) (let ((?v_14 (not ?v_177)) (?v_163 (<= (- (- (* (- 8) x6) (* 6 x40)) (* 24 x4)) 28)) (?v_179 (<= (- (+ (* (- 17) x24) (* 5 x15)) (* 24 x20)) (- 8)))) (let ((?v_89 (not ?v_179)) (?v_28 (< (- (- (* (- 19) x41) (* 6 x18)) (* 16 x13)) (- 15))) (?v_47 (< (+ (- ?v_73 (* 8 x39)) (* 16 x39)) (- 4))) (?v_41 (< (- (- (* (- 17) x32) (* 23 x18)) (* 11 x49)) (- 1))) (?v_22 (<= (+ (- (* (- 11) x5) (* 23 x25)) (* 16 x30)) 3)) (?v_124 (<= (* 9 x6) (- 9))) (?v_129 (= (- (- (* (- 23) x14) (* 10 x20)) (* 7 x38)) 8))) (let ((?v_35 (not ?v_129)) (?v_176 (not ?v_21)) (?v_29 (= (- (+ (* (- 18) x36) (* 15 x8)) (* 2 x37)) (- 29))) (?v_77 (<= (+ (- (* (- 1) x21) (* 12 x33)) (* 23 x8)) (- 24)))) (let ((?v_116 (not ?v_77)) (?v_140 (not ?v_2)) (?v_206 (= (- (+ (* (- 25) x8) (* 17 x41)) (* 7 x3)) 1))) (let ((?v_141 (not ?v_206)) (?v_132 (< (- (+ (* (- 21) x42) (* 4 x39)) (* 10 x17)) (- 7))) (?v_158 (not ?v_37)) (?v_80 (<= (+ (* (- 20) x41) (* 17 x29) ?v_38) (- 4))) (?v_103 (not ?v_41)) (?v_52 (< (- (- (* (- 14) x8) (* 8 x45)) (* 5 x48)) 15)) (?v_205 (<= (- (* 9 x10) (* 8 x1)) (- 12)))) (let ((?v_83 (not ?v_205)) (?v_121 (not ?v_47)) (?v_174 (not ?v_52)) (?v_139 (not ?v_11)) (?v_114 (<= (- (+ (* (- 6) x37) ?v_69) (* 15 x6)) (- 11))) (?v_93 (not ?v_28)) (?v_70 (distinct (- (+ (* (- 5) x12) (* 23 x27)) (* 20 x20)) (- 29)))) (let ((?v_107 (not ?v_70)) (?v_125 (< (+ ?v_195 (* 3 x46) (* 2 x14)) (- 9))) (?v_147 (= (+ (- (* 8 x35) (* 5 x16)) ?v_79) (- 14)))) (let ((?v_92 (not ?v_147)) (?v_99 (not ?v_80)) (?v_130 (<= (- (- (* (- 23) x28) ?v_102) (* 11 x39)) 11))) (let ((?v_134 (not ?v_130)) (?v_115 (= (+ (- (* (- 4) x32) 0) (* 18 x37)) 29)) (?v_122 (not ?v_114)) (?v_168 (not ?v_125)) (?v_210 (not ?v_132)) (?v_188 (< (+ (* (- 17) x5) (* 8 x23) (* 7 x48)) 16)) (?v_198 (not ?v_12)) (?v_223 (not ?v_22)) (?v_173 (<= (+ (* (- 7) x7) (* 2 x39) (* 7 x37)) 29))) (let ((?v_238 (not ?v_173)) (?v_248 (not ?v_124)) (?v_251 (not ?v_29)) (?v_222 (not ?v_188)) (?v_220 (< (+ (- 0 ?v_195) (* 8 x33)) (- 5))) (?v_219 (not ?v_163))) (let ((?v_255 (not ?v_220)) (?v_242 (not ?v_115))) (and (and (and (and (and (and (and (and (and (and (and (and (and (and (and (and (and (and (and (and (and (and (and (and (and (and (and (and (and (and (and (and (and (and (and (and (and (and (and (and (and (and (and (and (and (and (and (and (and (and (and (and (and (and (and (and (and (and (and (and (and (and (and (and (and (and (and (and (and (and (and (and (and (and (and (and (and (and (and (and (and (and (and (and (and (and (and (and (and (and (and (and (and (and (and (and (and (and (and (and (and (and (and (and (and (and (and (and (and (and (and (and (and (and (and (and (and (and (and (and (and (and (and (and (and (and (and (and (and (and (and (and (and (and (and (and (and (and (and (and (and (and (and (and (and (and (and (and (and (and (and (and (and (and (and (and (and (and (and (and (and (and (and (and (and (and (and (and (and (and (and (and (and (and (and (and (and (and (and (and (and (and (and (and (and (and (and (and (and (and (and (and (and (and (and (and (and (and (and (and (and (and (and (and (and (and (and (and (and (and (and (and (and (and (and (and (and (and (and (and (and (and (and (and (and (and (and (and (and (and (and (and (and (and (and (and (and (and (and (and (and (and (and (and (and (and (and (and (and (and (and (and (and (and (and (and (and (and (and (and (and (and (and (and (and (and (and (and (and (and (and (and (and (and (and (and (and (and (and (and (and (and (and (and (and (and (and (and (and (and (and (and (and (and (and (and (and (and (and (and (and (and (and (and (and (and (and (and (and (and (and (and (and (and (and (and (and (and (and (and (and (and (and (and (and (and (and (and (and (and (and (and (and (and (and (and (and (and (and (and (and (and (and (and (and (and (and (and (and (and (and (and (and (and (and (and (and (and (and (and (and (and (and (and (and (and (and (and (and (and (and (and (and (and (and (and (and (and (and (and (and (and (and (and (and (and (and (and (and (and (and (and (and (and (and (and (and (and (and (and (and (and (and (and (and (and (and (and (and (and (and (and (and (and (and (and (and (and (and (and (and (and (and (and (and (and (and (and (and (and (and (and (and (and (and (and (and (and (and (and (and (and (and (and (and (and (and (and (and (and (and (and (and (and (and (and (and (and (and (and (and (and (and (and (and (and (and (and (and (and (and (and (and (and (and (and (and (and (and (and (and (and (and (and (and (and (and (and (and (and (and (and (and (and (and (and (and (and (and (and (and (and (and (and (and (and (and (and (and (and (and (and (and (and (and (and (and (and (and (and (and (and (and (and (and (and (and (and (and (and (and (and (and (and (and (and (and (and (and (and (and (and (and (and (and (and (and (and (and (and (and (and (and (and (and (and (and (and (and (and (and (and (and (and (and (and (and (and (and (and (and (and (and (and (and (and (and (and (and (and (and (and (and (and (and (and (and (and (and (and (and (and (and (and (and (and (and (and (and (or (or ?v_23 P44) ?v_165) (or (or ?v_217 P31) P39)) (or (or ?v_36 ?v_6) ?v_224)) (or (or ?v_2 ?v_5) ?v_17)) (or (or ?v_16 ?v_7) ?v_20)) (or (or ?v_215 P8) ?v_10)) (or (or ?v_0 ?v_151) ?v_11)) (or (or ?v_118 ?v_13) ?v_21)) (or (or ?v_49 ?v_33) ?v_15)) (or (or ?v_1 ?v_2) ?v_9)) (or (or P11 ?v_67) ?v_88)) (or (or ?v_12 ?v_119) P44)) (or (or ?v_37 ?v_4) ?v_31)) (or (or ?v_110 ?v_4) ?v_5)) (or (or ?v_8 ?v_6) ?v_50)) (or (or ?v_8 ?v_39) ?v_72)) (or (or ?v_9 ?v_25) P5)) (or (or ?v_10 ?v_14) ?v_127)) (or (or P37 ?v_204) ?v_34)) (or (or ?v_11 ?v_163) ?v_43)) (or (or P37 ?v_89) ?v_12)) (or (or ?v_234 ?v_28) ?v_47)) (or (or ?v_41 ?v_22) ?v_11)) (or (or P19 ?v_32) ?v_124)) (or (or P6 ?v_13) ?v_30)) (or (or ?v_14 ?v_9) ?v_15)) (or (or ?v_16 ?v_55) ?v_17)) (or (or ?v_27 ?v_18) ?v_97)) (or (or ?v_35 ?v_15) ?v_58)) (or (or ?v_54 ?v_161) ?v_193)) (or (or P14 P4) ?v_20)) (or (or P48 ?v_61) ?v_176)) (or (or ?v_40 ?v_96) ?v_29)) (or (or ?v_26 ?v_22) ?v_23)) (or (or ?v_138 ?v_53) ?v_146)) (or (or ?v_78 ?v_111) ?v_25)) (or (or ?v_26 ?v_63) ?v_27)) (or (or ?v_116 ?v_28) ?v_87)) (or (or ?v_162 ?v_29) ?v_225)) (or (or P30 ?v_26) ?v_140)) (or (or ?v_175 P21) ?v_65)) (or (or P29 ?v_30) ?v_141)) (or (or ?v_132 ?v_190) ?v_153)) (or (or ?v_167 P30) P44)) (or (or ?v_32 ?v_98) ?v_59)) (or (or ?v_100 ?v_86) ?v_33)) (or (or ?v_56 ?v_34) ?v_35)) (or (or ?v_64 ?v_5) ?v_36)) (or (or ?v_135 ?v_155) ?v_158)) (or (or ?v_80 ?v_39) ?v_117)) (or (or ?v_226 ?v_40) P3)) (or (or ?v_103 ?v_52) ?v_15)) (or (or ?v_48 ?v_41) ?v_8)) (or (or ?v_6 ?v_45) ?v_85)) (or (or ?v_26 ?v_81) ?v_44)) (or (or P1 ?v_253) P12)) (or (or ?v_131 ?v_192) ?v_51)) (or (or ?v_2 ?v_0) ?v_172)) (or (or ?v_46 ?v_83) ?v_121)) (or (or ?v_8 ?v_48) P46)) (or (or ?v_49 ?v_50) ?v_51)) (or (or ?v_14 ?v_174) ?v_145)) (or (or ?v_139 ?v_171) ?v_53)) (or (or P19 ?v_54) ?v_114)) (or (or ?v_55 ?v_22) ?v_109)) (or (or ?v_91 ?v_106) ?v_236)) (or (or ?v_58 P11) ?v_59)) (or (or ?v_93 P27) ?v_56)) (or (or P46 ?v_60) ?v_56)) (or (or ?v_61 ?v_62) P26)) (or (or ?v_63 P10) P34)) (or (or ?v_64 ?v_228) P36)) (or (or ?v_65 ?v_66) ?v_23)) (or (or ?v_126 ?v_67) ?v_68)) (or (or ?v_107 ?v_45) P4)) (or (or ?v_144 ?v_211) P29)) (or (or ?v_52 ?v_54) ?v_108)) (or (or ?v_202 P4) ?v_75)) (or (or ?v_125 ?v_70) ?v_71)) (or (or ?v_20 ?v_72) P11)) (or (or ?v_8 ?v_59) ?v_181)) (or (or ?v_150 ?v_7) ?v_74)) (or (or P30 ?v_75) P22)) (or (or ?v_5 ?v_76) ?v_233)) (or (or ?v_15 ?v_9) ?v_164)) (or (or ?v_77 P46) ?v_78)) (or (or P39 ?v_84) ?v_92)) (or (or P8 ?v_166) ?v_221)) (or (or P49 ?v_44) ?v_99)) (or (or P4 ?v_2) ?v_81)) (or (or ?v_142 ?v_64) P47)) (or (or ?v_56 ?v_82) ?v_83)) (or (or ?v_84 ?v_85) ?v_86)) (or (or ?v_87 ?v_61) ?v_35)) (or (or ?v_20 P1) ?v_154)) (or (or ?v_59 ?v_88) ?v_101)) (or (or ?v_89 P16) ?v_95)) (or (or ?v_90 ?v_91) ?v_92)) (or (or ?v_93 ?v_15) P26)) (or (or ?v_94 ?v_67) ?v_95)) (or (or ?v_96 ?v_180) P34)) (or (or ?v_25 ?v_97) ?v_28)) (or (or ?v_61 ?v_120) ?v_71)) (or (or ?v_98 P20) ?v_99)) (or (or ?v_94 ?v_208) ?v_100)) (or (or ?v_101 ?v_52) ?v_134)) (or (or P4 P22) ?v_170)) (or (or ?v_103 ?v_90) ?v_104)) (or (or ?v_105 ?v_194) ?v_77)) (or (or ?v_143 P12) ?v_4)) (or (or P7 ?v_91) ?v_71)) (or (or ?v_107 ?v_128) ?v_109)) (or (or ?v_52 ?v_23) ?v_110)) (or (or P11 ?v_89) ?v_111)) (or (or ?v_112 ?v_0) ?v_40)) (or (or ?v_113 P15) ?v_115)) (or (or ?v_122 ?v_123) ?v_115)) (or (or ?v_116 ?v_117) ?v_118)) (or (or ?v_71 ?v_87) ?v_119)) (or (or ?v_120 ?v_121) P48)) (or (or ?v_5 ?v_122) ?v_136)) (or (or ?v_124 ?v_213) ?v_12)) (or (or ?v_168 ?v_126) ?v_127)) (or (or ?v_128 ?v_129) P5)) (or (or P5 ?v_130) ?v_119)) (or (or ?v_157 P25) ?v_210)) (or (or ?v_133 ?v_134) ?v_23)) (or (or P15 ?v_30) ?v_227)) (or (or P43 P2) ?v_62)) (or (or ?v_18 ?v_104) ?v_135)) (or (or ?v_112 ?v_33) ?v_183)) (or (or ?v_136 ?v_188) P40)) (or (or ?v_39 ?v_178) ?v_17)) (or (or ?v_137 ?v_99) ?v_138)) (or (or ?v_103 P8) ?v_139)) (or (or P48 ?v_140) ?v_110)) (or (or ?v_159 ?v_141) ?v_1)) (or (or ?v_142 ?v_72) ?v_74)) (or (or ?v_201 P28) ?v_97)) (or (or ?v_83 P18) ?v_218)) (or (or ?v_80 ?v_132) ?v_247)) (or (or ?v_126 ?v_144) ?v_16)) (or (or P2 ?v_72) ?v_74)) (or (or ?v_145 ?v_101) ?v_146)) (or (or ?v_115 ?v_46) ?v_147)) (or (or P41 ?v_117) P7)) (or (or P45 P4) P46)) (or (or P32 ?v_117) ?v_52)) (or (or ?v_104 P40) P7)) (or (or ?v_2 P12) ?v_137)) (or (or ?v_148 ?v_51) ?v_126)) (or (or ?v_51 ?v_92) P17)) (or (or ?v_203 ?v_198) ?v_150)) (or (or ?v_223 ?v_151) ?v_126)) (or (or ?v_59 ?v_130) ?v_55)) (or ?v_257 ?v_68)) (or (or P47 P4) P41)) (or (or ?v_173 ?v_67) P14)) (or (or ?v_50 ?v_126) P41)) (or (or P24 ?v_30) ?v_10)) (or (or P19 P27) ?v_245)) (or (or ?v_187 ?v_34) ?v_29)) (or (or ?v_152 ?v_138) ?v_129)) (or (or ?v_65 P22) ?v_127)) (or (or ?v_137 ?v_29) ?v_153)) (or (or ?v_31 ?v_154) ?v_133)) (or (or ?v_81 ?v_155) ?v_141)) (or (or P12 ?v_41) ?v_40)) (or (or ?v_53 P33) P9)) (or (or ?v_96 ?v_156) ?v_49)) (or (or ?v_157 ?v_158) ?v_39)) (or (or P19 ?v_150) ?v_141)) (or (or ?v_141 ?v_126) ?v_159)) (or (or ?v_135 ?v_160) ?v_116)) (or (or ?v_8 ?v_161) P25)) (or (or ?v_67 ?v_68) ?v_186)) (or (or ?v_162 ?v_163) ?v_164)) (or (or ?v_165 ?v_166) ?v_207)) (or (or ?v_46 ?v_126) ?v_131)) (or (or ?v_168 ?v_33) ?v_167)) (or (or P28 ?v_200) ?v_83)) (or (or ?v_212 ?v_39) ?v_60)) (or (or ?v_129 ?v_196) ?v_171)) (or (or ?v_109 ?v_93) ?v_152)) (or (or ?v_120 ?v_111) ?v_197)) (or (or ?v_105 ?v_172) ?v_246)) (or (or P14 ?v_238) P47)) (or (or ?v_248 ?v_33) ?v_216)) (or (or ?v_29 P25) ?v_174)) (or (or ?v_189 P49) ?v_176)) (or (or ?v_62 ?v_76) ?v_13)) (or (or P43 ?v_177) ?v_150)) (or (or ?v_161 P6) ?v_14)) (or (or ?v_103 ?v_178) ?v_100)) (or (or ?v_150 P11) ?v_179)) (or (or ?v_251 P8) ?v_82)) (or (or ?v_154 ?v_98) ?v_90)) (or (or ?v_177 ?v_87) ?v_120)) (or (or ?v_91 ?v_34) ?v_180)) (or (or P15 ?v_181) ?v_52)) (or (or ?v_67 ?v_125) ?v_103)) (or (or ?v_154 ?v_46) P41)) (or (or ?v_8 ?v_131) ?v_140)) (or (or ?v_89 ?v_182) ?v_0)) (or (or ?v_250 ?v_65) ?v_124)) (or (or ?v_184 ?v_142) ?v_37)) (or (or P33 ?v_109) ?v_46)) (or (or ?v_231 ?v_185) ?v_9)) (or (or ?v_82 ?v_16) ?v_95)) (or (or ?v_186 ?v_55) ?v_88)) (or (or ?v_146 P31) P0)) (or (or ?v_187 ?v_90) ?v_55)) (or (or ?v_130 P45) ?v_148)) (or (or ?v_148 ?v_222) P43)) (or (or P17 ?v_43) ?v_139)) (or (or ?v_158 ?v_189) ?v_127)) (or (or ?v_17 ?v_66) P42)) (or (or ?v_2 P1) ?v_190)) (or (or P30 ?v_1) ?v_177)) (or (or ?v_174 ?v_191) ?v_199)) (or (or ?v_192 ?v_185) P45)) (or (or ?v_97 ?v_134) ?v_52)) (or (or ?v_81 ?v_193) ?v_130)) (or (or ?v_125 P2) ?v_122)) (or (or P44 ?v_80) ?v_62)) (or (or P41 ?v_135) ?v_194)) (or (or ?v_237 ?v_6) ?v_121)) (or (or P42 ?v_94) P49)) (or (or ?v_9 ?v_220) ?v_196)) (or (or ?v_155 ?v_197) ?v_164)) (or (or ?v_118 ?v_187) ?v_133)) (or (or ?v_40 ?v_46) ?v_106)) (or (or ?v_97 ?v_198) ?v_32)) (or (or ?v_1 ?v_199) P37)) (or (or ?v_124 ?v_167) P17)) (or (or P2 ?v_142) ?v_100)) (or (or ?v_200 ?v_27) ?v_53)) (or (or ?v_201 ?v_146) ?v_132)) (or (or ?v_58 ?v_241) ?v_147)) (or (or P43 ?v_197) ?v_202)) (or (or P13 ?v_31) ?v_256)) (or (or P41 ?v_194) ?v_118)) (or (or ?v_75 ?v_166) ?v_181)) (or (or ?v_136 ?v_146) ?v_204)) (or (or ?v_128 ?v_205) ?v_72)) (or (or ?v_172 ?v_206) ?v_76)) (or (or ?v_4 ?v_143) ?v_150)) (or (or ?v_134 ?v_207) P43)) (or (or ?v_92 ?v_114) ?v_107)) (or (or ?v_89 ?v_153) ?v_51)) (or (or ?v_208 ?v_235) ?v_109)) (or (or ?v_153 ?v_20) P28)) (or (or ?v_126 P24) ?v_158)) (or (or P11 ?v_35) ?v_209)) (or (or ?v_62 ?v_160) ?v_198)) (or (or P33 ?v_210) ?v_211)) (or (or ?v_182 P25) P36)) (or (or ?v_171 ?v_105) ?v_62)) (or (or ?v_153 ?v_84) P8)) (or (or ?v_157 ?v_212) ?v_76)) (or (or ?v_13 ?v_52) ?v_33)) (or (or P2 ?v_70) ?v_48)) (or (or ?v_120 ?v_213) ?v_157)) (or (or ?v_159 P10) ?v_214)) (or (or ?v_45 ?v_89) ?v_215)) (or (or P40 ?v_211) ?v_21)) (or (or ?v_216 ?v_91) P38)) (or (or ?v_111 (not ?v_126)) P24)) (or (or ?v_59 ?v_6) ?v_10)) (or (or ?v_217 ?v_219) P5)) (or (or ?v_138 P36) P7)) (or (or ?v_65 ?v_14) ?v_218)) (or (or ?v_59 ?v_214) ?v_148)) (or (or ?v_15 ?v_145) ?v_134)) (or (or ?v_46 ?v_185) ?v_159)) (or (or ?v_50 ?v_192) ?v_135)) (or (or P6 ?v_18) ?v_170)) (or (or ?v_37 ?v_106) ?v_219)) (or (or ?v_141 ?v_37) ?v_93)) (or (or ?v_40 ?v_93) ?v_78)) (or (or P41 ?v_108) ?v_206)) (or (or ?v_170 P18) ?v_35)) (or (or ?v_36 P31) ?v_9)) (or (or ?v_210 ?v_111) ?v_9)) (or (or ?v_54 ?v_8) ?v_70)) (or (or ?v_196 ?v_76) ?v_255)) (or (or ?v_88 P42) ?v_144)) (or (or ?v_116 ?v_128) ?v_184)) (or (or ?v_156 ?v_137) ?v_215)) (or (or ?v_216 ?v_242) ?v_65)) (or (or P43 ?v_59) ?v_8)) (or (or ?v_4 P18) ?v_160)) (or (or P31 ?v_175) ?v_144)) (or (or ?v_221 ?v_205) ?v_184)) (or (or ?v_244 ?v_201) P27)) (or (or ?v_116 ?v_207) ?v_137)) (or (or ?v_176 P36) ?v_116)) (or (or ?v_83 ?v_196) ?v_189)) (or (or ?v_89 ?v_30) ?v_193)) (or (or ?v_12 ?v_222) ?v_11)) (or (or ?v_183 ?v_148) ?v_58)) (or (or ?v_100 ?v_135) ?v_139)) (or (or P4 P30) ?v_185)) (or (or ?v_223 ?v_213) ?v_11)) (or (or P27 ?v_230) ?v_63)) (or (or ?v_183 ?v_212) ?v_170)) (or (or ?v_93 ?v_127) ?v_159)) (or (or ?v_116 ?v_11) P32)) (or (or P14 P10) ?v_224)) (or (or ?v_103 ?v_13) ?v_29)) (or (or ?v_76 ?v_124) ?v_210)) (or (or ?v_186 ?v_33) ?v_82)) (or (or P20 ?v_157) ?v_1)) (or (or ?v_181 P23) P33)) (or (or ?v_106 P15) ?v_204)) (or (or P3 ?v_118) ?v_30)) (or (or ?v_99 ?v_29) ?v_225)) (or (or ?v_121 P36) P48)) (or (or ?v_226 ?v_214) P0)) (or (or ?v_227 ?v_44) ?v_177)) (or (or P8 ?v_157) ?v_202)) (or (or P31 ?v_200) ?v_0)) (or (or ?v_180 ?v_5) ?v_228)) (or (or ?v_232 ?v_8) ?v_68)) (or (or ?v_222 ?v_51) ?v_239)) (or (or (not ?v_84) ?v_139) ?v_124)) (or (or P26 ?v_228) ?v_167)) (or (or ?v_191 P21) P36)) (or (or P36 ?v_229) ?v_65)) (or (or P8 ?v_89) ?v_230)) (or (or ?v_225 ?v_107) ?v_231)) (or (or ?v_232 ?v_87) ?v_16)) (or (or ?v_132 ?v_159) ?v_166)) (or (or ?v_161 ?v_10) ?v_80)) (or (or P21 ?v_145) P39)) (or (or ?v_66 ?v_222) ?v_162)) (or (or ?v_61 ?v_196) ?v_249)) (or (or ?v_12 ?v_88) P8)) (or (or ?v_233 ?v_31) ?v_192)) (or (or ?v_170 P37) ?v_234)) (or (or ?v_77 ?v_174) ?v_106)) (or (or ?v_122 ?v_100) ?v_91)) (or (or ?v_235 ?v_224) ?v_49)) (or (or ?v_82 ?v_88) ?v_81)) (or (or ?v_5 ?v_186) ?v_190)) (or (or ?v_31 ?v_183) ?v_189)) (or (or ?v_7 ?v_107) ?v_213)) (or (or ?v_104 ?v_258) P43)) (or (or ?v_236 ?v_75) ?v_155)) (or (or ?v_109 ?v_204) ?v_96)) (or (or P2 ?v_162) ?v_191)) (or (or ?v_32 P25) ?v_192)) (or (or ?v_235 ?v_15) ?v_64)) (or (or P48 P32) ?v_204)) (or (or ?v_237 P34) ?v_137)) (or (or ?v_237 ?v_117) ?v_198)) (or (or ?v_213 P24) ?v_16)) (or (or ?v_82 ?v_154) ?v_202)) (or (or ?v_105 ?v_92) ?v_237)) (or (or ?v_238 ?v_153) ?v_141)) (or (or ?v_213 P30) ?v_186)) (or (or ?v_183 P14) ?v_141)) (or (or ?v_16 ?v_212) ?v_35)) (or (or ?v_36 ?v_150) ?v_75)) (or (or P24 ?v_35) ?v_132)) (or (or ?v_227 ?v_159) ?v_104)) (or (or P1 ?v_74) P44)) (or (or ?v_29 P31) ?v_225)) (or (or P23 P36) ?v_33)) (or (or ?v_228 ?v_34) ?v_5)) (or (or ?v_60 ?v_204) P2)) (or (or ?v_2 ?v_51) ?v_206)) (or (or P23 ?v_118) ?v_95)) (or (or ?v_187 ?v_82) ?v_239)) (or (or ?v_74 ?v_234) ?v_48)) (or (or P47 P34) ?v_240)) (or (or ?v_98 ?v_67) P47)) (or (or ?v_150 ?v_135) P1)) (or (or ?v_127 ?v_162) ?v_252)) (or (or ?v_210 ?v_216) ?v_225)) (or (or P0 ?v_241) ?v_186)) (or (or ?v_100 ?v_109) P22)) (or (or ?v_93 ?v_21) ?v_18)) (or (or ?v_27 ?v_109) ?v_103)) (or (or P33 ?v_227) ?v_201)) (or (or ?v_213 ?v_192) P46)) (or (or ?v_156 ?v_90) ?v_139)) (or (or ?v_166 ?v_63) P2)) (or (or ?v_63 ?v_40) ?v_128)) (or (or ?v_119 ?v_103) ?v_162)) (or (or ?v_164 ?v_231) ?v_200)) (or (or ?v_66 ?v_103) ?v_49)) (or (or ?v_2 ?v_86) ?v_242)) (or (or ?v_243 P35) ?v_194)) (or (or ?v_226 ?v_86) ?v_81)) (or (or ?v_84 P44) ?v_74)) (or (or ?v_188 ?v_11) ?v_171)) (or (or ?v_141 ?v_233) ?v_61)) (or (or ?v_104 P15) ?v_31)) (or (or ?v_132 (not P26)) P25)) (or (or ?v_140 ?v_190) ?v_135)) (or (or ?v_213 ?v_173) ?v_125)) (or (or ?v_200 ?v_40) ?v_116)) (or (or ?v_172 ?v_174) ?v_103)) (or (or ?v_131 ?v_241) ?v_244)) (or (or ?v_62 ?v_53) ?v_30)) (or (or ?v_120 P46) P7)) (or (or ?v_170 ?v_185) ?v_63)) (or (or ?v_198 ?v_127) ?v_37)) (or (or ?v_234 ?v_213) ?v_209)) (or (or ?v_22 ?v_72) P1)) (or (or ?v_30 ?v_143) ?v_34)) (or (or ?v_46 ?v_140) ?v_207)) (or (or ?v_21 ?v_41) ?v_5)) (or (or ?v_82 P29) ?v_170)) (or (or ?v_45 ?v_200) ?v_153)) (or (or P36 ?v_245) ?v_150)) (or (or ?v_201 ?v_54) ?v_162)) (or (or P40 ?v_236) ?v_111)) (or (or ?v_246 ?v_29) ?v_231)) (or (or ?v_78 ?v_98) ?v_117)) (or (or ?v_94 P12) ?v_150)) (or (or ?v_217 ?v_247) ?v_180)) (or (or ?v_248 ?v_162) ?v_249)) (or (or ?v_32 P18) ?v_136)) (or (or ?v_244 ?v_157) P41)) (or (or ?v_189 ?v_200) ?v_184)) (or (or P42 ?v_163) P9)) (or (or P34 ?v_66) ?v_239)) (or (or ?v_127 ?v_141) P47)) (or (or ?v_250 ?v_7) ?v_47)) (or (or ?v_4 ?v_126) ?v_239)) (or (or ?v_17 ?v_231) ?v_237)) (or (or ?v_94 ?v_77) ?v_173)) (or (or ?v_31 ?v_251) ?v_185)) (or (or ?v_77 ?v_130) ?v_100)) (or (or ?v_158 ?v_82) ?v_136)) (or (or ?v_56 ?v_176) P15)) (or (or ?v_126 ?v_0) ?v_129)) (or (or ?v_224 ?v_40) ?v_158)) (or (or P29 ?v_223) ?v_135)) (or (or ?v_112 ?v_177) ?v_147)) (or (or ?v_98 ?v_159) P30)) (or (or ?v_84 ?v_252) ?v_189)) (or (or ?v_241 P44) ?v_253)) (or (or ?v_198 ?v_158) P4)) (or (or ?v_134 ?v_133) ?v_223)) (or (or P47 ?v_236) ?v_208)) (or (or ?v_132 P26) ?v_104)) (or (or P33 ?v_240) ?v_4)) (or (or ?v_103 ?v_164) ?v_113)) (or (or ?v_7 ?v_254) ?v_238)) (or (or ?v_30 ?v_37) P7)) (or (or ?v_184 ?v_43) ?v_113)) (or (or ?v_163 ?v_88) ?v_227)) (or (or P49 ?v_246) ?v_206)) (or (or P40 P36) P29)) (or (or ?v_211 ?v_84) ?v_173)) (or (or ?v_21 ?v_183) ?v_171)) (or (or ?v_233 ?v_209) ?v_227)) (or (or ?v_129 ?v_255) ?v_39)) (or (or ?v_198 ?v_191) ?v_183)) (or (or ?v_185 ?v_65) ?v_247)) (or (or ?v_41 P17) ?v_18)) (or (or ?v_190 P14) ?v_236)) (or (or P16 ?v_56) ?v_25)) (or (or ?v_107 ?v_256) ?v_29)) (or (or ?v_107 ?v_119) ?v_104)) (or (or ?v_179 ?v_173) ?v_180)) (or (or ?v_208 ?v_63) ?v_100)) (or (or ?v_47 ?v_201) ?v_36)) (or (or P19 ?v_143) ?v_157)) (or (or ?v_128 ?v_113) ?v_241)) (or (or P48 ?v_178) ?v_77)) (or (or ?v_227 ?v_48) ?v_2)) (or (or P25 ?v_74) ?v_153)) (or (or ?v_216 ?v_54) ?v_88)) (or (or ?v_139 ?v_159) P7)) (or (or ?v_179 ?v_214) ?v_118)) (or (or ?v_194 ?v_123) P15)) (or (or P25 ?v_161) ?v_243)) (or (or P9 P9) ?v_243)) (or (or ?v_31 ?v_8) ?v_120)) (or (or P21 ?v_172) P32)) (or (or ?v_208 ?v_98) ?v_138)) (or (or ?v_160 ?v_35) ?v_143)) (or (or ?v_247 ?v_132) ?v_230)) (or (or ?v_177 ?v_150) ?v_60)) (or (or ?v_75 ?v_129) ?v_191)) (or (or P42 ?v_68) ?v_146)) (or (or P3 ?v_196) ?v_216)) (or (or ?v_34 P43) ?v_217)) (or (or ?v_248 ?v_247) ?v_160)) (or (or ?v_116 ?v_152) P45)) (or (or ?v_151 ?v_173) P31)) (or (or P5 ?v_68) ?v_244)) (or (or ?v_249 ?v_137) ?v_4)) (or (or ?v_37 ?v_212) ?v_147)) (or (or ?v_30 ?v_71) ?v_92)) (or (or ?v_127 P11) ?v_40)) (or (or ?v_226 ?v_30) ?v_0)) (or (or ?v_240 ?v_166) ?v_165)) (or (or ?v_196 ?v_209) ?v_10)) (or (or ?v_82 ?v_171) ?v_14)) (or (or ?v_122 P47) ?v_144)) (or (or P19 ?v_159) ?v_129)) (or (or ?v_148 P30) ?v_130)) (or (or ?v_239 ?v_234) ?v_147)) (or (or ?v_188 ?v_217) ?v_63)) (or (or ?v_237 ?v_67) ?v_193)) (or (or P31 ?v_224) ?v_207)) (or (or P41 ?v_115) P39)) (or (or ?v_205 P45) ?v_203)) (or (or ?v_17 ?v_248) ?v_151)) (or (or ?v_126 ?v_242) ?v_94)) (or (or P9 P28) ?v_97)) (or (or ?v_48 ?v_30) ?v_21)) (or (or ?v_75 ?v_48) ?v_56)) (or (or ?v_202 ?v_202) ?v_204)) (or (or ?v_236 ?v_135) ?v_186)) (or (or ?v_54 ?v_152) ?v_198)) (or (or ?v_112 ?v_50) ?v_37)) (or (or ?v_34 ?v_239) ?v_87)) (or (or ?v_80 P7) ?v_229)) (or (or P25 ?v_182) ?v_146)) (or (or ?v_162 ?v_227) ?v_83)) (or (or ?v_101 ?v_159) ?v_205)) (or (or ?v_132 ?v_181) ?v_191)) (or (or ?v_188 P35) ?v_89)) (or (or P8 ?v_145) ?v_99)) (or (or ?v_46 ?v_115) ?v_165)) (or (or ?v_216 ?v_31) ?v_156)) (or (or P40 ?v_157) ?v_4)) (or (or ?v_70 ?v_82) ?v_140)) (or (or ?v_81 ?v_8) ?v_198)) (or (or ?v_112 P17) ?v_61)) (or (or ?v_27 ?v_191) ?v_25)) (or (or ?v_106 ?v_166) ?v_150)) (or (or ?v_146 P47) ?v_253)) (or (or ?v_41 ?v_122) P41)) (or (or ?v_13 ?v_110) ?v_229)) (or (or ?v_209 ?v_239) P8)) (or (or ?v_206 ?v_96) ?v_72)) (or (or ?v_101 ?v_245) ?v_45)) (or (or P23 ?v_48) P10)) (or (or ?v_259 ?v_72) ?v_256)) (or (or ?v_56 ?v_226) P20)) (or (or ?v_196 ?v_213) ?v_106)) (or (or ?v_192 P18) ?v_45)) (or (or ?v_71 ?v_9) ?v_29)) (or (or ?v_181 ?v_246) ?v_8)) (or (or ?v_51 ?v_192) ?v_196)) (or ?v_257 ?v_140)) (or (or P20 ?v_198) ?v_65)) (or (or P43 P40) ?v_140)) (or (or ?v_52 ?v_204) ?v_92)) (or (or ?v_114 ?v_180) ?v_219)) (or (or ?v_88 ?v_244) ?v_45)) (or (or P42 ?v_233) ?v_1)) (or (or P29 P45) ?v_9)) (or (or ?v_76 ?v_159) ?v_92)) (or (or ?v_191 P19) ?v_155)) (or (or P37 ?v_142) P11)) (or (or ?v_103 P28) ?v_166)) (or (or ?v_250 ?v_22) ?v_119)) (or (or P36 ?v_208) ?v_240)) (or (or ?v_100 ?v_248) ?v_82)) (or (or ?v_204 ?v_141) P18)) (or (or ?v_112 ?v_76) P14)) (or (or ?v_37 ?v_258) ?v_98)) (or (or ?v_236 ?v_177) ?v_58)) (or (or ?v_246 ?v_61) ?v_199)) (or (or ?v_160 ?v_258) ?v_26)) (or (or ?v_131 P28) ?v_254)) (or (or ?v_54 ?v_188) ?v_178)) (or (or ?v_97 ?v_212) ?v_83)) (or (or ?v_136 ?v_166) ?v_93)) (or (or ?v_175 ?v_119) ?v_192)) (or (or ?v_67 ?v_249) ?v_44)) (or (or ?v_68 ?v_51) ?v_23)) (or (or ?v_237 ?v_21) ?v_248)) (or (or ?v_133 ?v_4) ?v_100)) (or (or ?v_51 ?v_51) ?v_172)) (or (or ?v_209 ?v_244) P46)) (or (or ?v_168 ?v_204) ?v_14)) (or (or ?v_36 ?v_175) ?v_109)) (or (or ?v_111 ?v_119) ?v_242)) (or (or ?v_7 ?v_124) ?v_125)) (or (or ?v_89 ?v_44) P41)) (or (or P42 ?v_64) ?v_171)) (or (or ?v_64 ?v_209) ?v_17)) (or (or ?v_250 ?v_74) ?v_159)) (or (or ?v_7 ?v_233) ?v_189)) (or (or ?v_107 ?v_233) ?v_8)) (or (or P48 ?v_248) ?v_48)) (or (or ?v_172 ?v_168) ?v_119)) (or (or ?v_190 ?v_118) ?v_171)) (or (or ?v_217 P8) ?v_158)) (or (or ?v_74 ?v_170) ?v_26)) (or (or ?v_259 P33) ?v_224)))))))))))))))))))))))))))))))))))))
(check-sat)
(exit)
